p cnf 12 50 
8 7 -12 0
-4 8 10 0
-5 12 -11 0
-3 -5 -12 0
-7 2 11 0
9 -6 -11 0
8 3 -5 0
2 9 10 0
-10 1 -9 0
6 -8 -1 0
1 -2 -12 0
-4 8 9 0
-12 -6 -7 0
-10 -9 -11 0
-2 -7 -6 0
9 1 -8 0
10 -5 -12 0
4 -7 -10 0
-1 2 -7 0
9 -2 6 0
-10 -7 -11 0
5 -9 8 0
2 6 12 0
-4 1 -7 0
1 6 8 0
5 -9 -8 0
-10 -1 -12 0
-3 -2 -12 0
9 1 -5 0
-2 11 12 0
2 -1 4 0
7 -9 -5 0
-2 -12 -7 0
-5 3 -10 0
1 -12 -3 0
-9 -4 5 0
11 -4 12 0
-7 -3 -2 0
10 -5 11 0
-5 10 7 0
-6 -2 7 0
-3 -12 2 0
8 -12 -1 0
-6 -8 -10 0
-9 -12 1 0
4 -11 2 0
-12 -10 7 0
7 3 -10 0
8 -1 9 0
-4 10 6 0
